; PUSH cw_2 DUP2 SWAP1 SSTORE DUP1 => DUP1 DUP1 PUSH cw_2 SSTORE
(set-option :produce-proofs true)
; 
(set-info :status unknown)
(declare-fun storage_t ((_ BitVec 256) (_ BitVec 256) (_ BitVec 256) Int (_ BitVec 256)) (_ BitVec 256))
(declare-fun w_2 () (_ BitVec 256))
(declare-fun storage_s ((_ BitVec 256) (_ BitVec 256) (_ BitVec 256) Int (_ BitVec 256)) (_ BitVec 256))
(declare-fun exc_halt_t (Int) Bool)
(declare-fun exc_halt_s (Int) Bool)
(declare-fun sc_t (Int) (_ BitVec 6))
(declare-fun stack_t ((_ BitVec 256) (_ BitVec 256) (_ BitVec 256) Int (_ BitVec 6)) (_ BitVec 256))
(declare-fun stack_s ((_ BitVec 256) (_ BitVec 256) (_ BitVec 256) Int (_ BitVec 6)) (_ BitVec 256))
(declare-fun sc_s (Int) (_ BitVec 6))
(declare-fun used_gas_t ((_ BitVec 256) (_ BitVec 256) (_ BitVec 256) Int) Int)
(declare-fun used_gas_s ((_ BitVec 256) (_ BitVec 256) (_ BitVec 256) Int) Int)
(assert
 (exists ((x_0 (_ BitVec 256)) (x_SSTORE_0 (_ BitVec 256)) )(let (($x2512 (forall ((w (_ BitVec 256)) )(let ((?x7027 (storage_t x_0 x_SSTORE_0 w_2 4 w)))
 (let ((?x11840 (storage_s x_0 x_SSTORE_0 w_2 5 w)))
 (= ?x11840 ?x7027))))
 ))
 (let (($x7854 (exc_halt_t 4)))
 (let (($x11317 (exc_halt_s 5)))
 (let (($x6479 (= $x11317 $x7854)))
 (let (($x1437 (forall ((n (_ BitVec 6)) )(let ((?x4818 (sc_t 4)))
 (let (($x6358 (bvsle ?x4818 n)))
 (let ((?x4074 (stack_t x_0 x_SSTORE_0 w_2 4 n)))
 (let ((?x6681 (stack_s x_0 x_SSTORE_0 w_2 5 n)))
 (let (($x279 (= ?x6681 ?x4074)))
 (or $x279 $x6358)))))))
 ))
 (let ((?x4818 (sc_t 4)))
 (let ((?x4319 (sc_s 5)))
 (let (($x1733 (= ?x4319 ?x4818)))
 (let ((?x4566 (used_gas_t x_0 x_SSTORE_0 w_2 0)))
 (let ((?x7511 (used_gas_s x_0 x_SSTORE_0 w_2 0)))
 (let (($x11247 (= ?x7511 ?x4566)))
 (let (($x10542 (forall ((w (_ BitVec 256)) )(let ((?x9564 (storage_t x_0 x_SSTORE_0 w_2 0 w)))
 (let ((?x4361 (storage_s x_0 x_SSTORE_0 w_2 0 w)))
 (= ?x4361 ?x9564))))
 ))
 (let (($x56 (exc_halt_t 0)))
 (let (($x57 (exc_halt_s 0)))
 (let (($x58 (= $x57 $x56)))
 (let (($x3173 (forall ((n (_ BitVec 6)) )(let ((?x63 (sc_t 0)))
 (let (($x6552 (bvsle ?x63 n)))
 (let ((?x6142 (stack_t x_0 x_SSTORE_0 w_2 0 n)))
 (let ((?x1394 (stack_s x_0 x_SSTORE_0 w_2 0 n)))
 (let (($x1415 (= ?x1394 ?x6142)))
 (or $x1415 $x6552)))))))
 ))
 (let ((?x63 (sc_t 0)))
 (let ((?x72 (sc_s 0)))
 (let (($x73 (= ?x72 ?x63)))
 (let (($x3565 (= $x7854 (or (exc_halt_t 3) (not (bvsle (_ bv0 6) (bvadd (_ bv62 6) (sc_t 3))))))))
 (let (($x7161 (forall ((n (_ BitVec 6)) )(let ((?x2604 (stack_t x_0 x_SSTORE_0 w_2 3 n)))
 (let ((?x4074 (stack_t x_0 x_SSTORE_0 w_2 4 n)))
 (or (bvsle (bvadd (_ bv62 6) (sc_t 3)) n) (= ?x4074 ?x2604)))))
 ))
 (let (($x10169 (= (stack_t x_0 x_SSTORE_0 w_2 3 (bvadd (_ bv62 6) (sc_t 3))) (_ bv0 256))))
 (let ((?x10870 (storage_t x_0 x_SSTORE_0 w_2 3 (stack_t x_0 x_SSTORE_0 w_2 3 (bvadd (_ bv63 6) (sc_t 3))))))
 (let ((?x8223 (used_gas_t x_0 x_SSTORE_0 w_2 3)))
 (let ((?x4082 (+ ?x8223 (ite (= ?x10870 (_ bv0 256)) (ite $x10169 5000 20000) (ite $x10169 (- 10000) 5000)))))
 (let (($x6054 (forall ((w (_ BitVec 256)) )(let ((?x11735 (storage_t x_0 x_SSTORE_0 w_2 3 w)))
 (let ((?x2334 (ite (= w (stack_t x_0 x_SSTORE_0 w_2 3 (bvadd (_ bv63 6) (sc_t 3)))) (stack_t x_0 x_SSTORE_0 w_2 3 (bvadd (_ bv62 6) (sc_t 3))) ?x11735)))
 (let ((?x7027 (storage_t x_0 x_SSTORE_0 w_2 4 w)))
 (= ?x7027 ?x2334)))))
 ))
 (let (($x8506 (not (= ((_ extract 6 6) (bvadd (_ bv1 7) (concat (_ bv0 1) (sc_t 2)))) (_ bv0 1)))))
 (let (($x9674 (exc_halt_t 2)))
 (let (($x3614 (exc_halt_t 3)))
 (let (($x1977 (= $x3614 (or $x9674 $x8506))))
 (let (($x3117 (forall ((w (_ BitVec 256)) )(let ((?x10367 (storage_t x_0 x_SSTORE_0 w_2 2 w)))
 (let ((?x11735 (storage_t x_0 x_SSTORE_0 w_2 3 w)))
 (= ?x11735 ?x10367))))
 ))
 (let (($x3357 (forall ((n (_ BitVec 6)) )(let ((?x5442 (stack_t x_0 x_SSTORE_0 w_2 2 n)))
 (let ((?x2604 (stack_t x_0 x_SSTORE_0 w_2 3 n)))
 (let ((?x6158 (sc_t 2)))
 (let (($x2552 (bvsle ?x6158 n)))
 (or $x2552 (= ?x2604 ?x5442)))))))
 ))
 (let ((?x11304 (sc_t 3)))
 (let (($x2667 (= ?x11304 (bvadd (_ bv1 6) (sc_t 2)))))
 (let (($x8377 (exc_halt_t 1)))
 (let (($x3336 (not (= ((_ extract 6 6) (bvadd (_ bv1 7) (concat (_ bv0 1) (sc_t 1)))) (_ bv0 1)))))
 (let (($x4382 (= $x9674 (or $x3336 $x8377 (not (bvsle (_ bv0 6) (bvadd (_ bv63 6) (sc_t 1))))))))
 (let (($x4314 (forall ((w (_ BitVec 256)) )(let ((?x1759 (storage_t x_0 x_SSTORE_0 w_2 1 w)))
 (let ((?x10367 (storage_t x_0 x_SSTORE_0 w_2 2 w)))
 (= ?x10367 ?x1759))))
 ))
 (let (($x10042 (forall ((n (_ BitVec 6)) )(let ((?x8345 (stack_t x_0 x_SSTORE_0 w_2 1 n)))
 (let ((?x5442 (stack_t x_0 x_SSTORE_0 w_2 2 n)))
 (let ((?x7154 (sc_t 1)))
 (let ((?x3400 (bvadd (_ bv63 6) ?x7154)))
 (let (($x9923 (bvsle ?x3400 n)))
 (or $x9923 (= ?x5442 ?x8345))))))))
 ))
 (let ((?x6158 (sc_t 2)))
 (let (($x3131 (= ?x6158 (bvadd (_ bv1 6) (sc_t 1)))))
 (let ((?x364 (used_gas_t x_0 x_SSTORE_0 w_2 2)))
 (let ((?x7154 (sc_t 1)))
 (let ((?x3400 (bvadd (_ bv63 6) ?x7154)))
 (let ((?x11124 (stack_t x_0 x_SSTORE_0 w_2 1 ?x3400)))
 (let (($x9612 (not (= ((_ extract 6 6) (bvadd (_ bv1 7) (concat (_ bv0 1) ?x63))) (_ bv0 1)))))
 (let (($x2279 (not (bvsle (_ bv0 6) (bvadd (_ bv63 6) ?x63)))))
 (let (($x7505 (= $x8377 (or $x56 $x2279 $x9612))))
 (let (($x5348 (forall ((w (_ BitVec 256)) )(let ((?x9564 (storage_t x_0 x_SSTORE_0 w_2 0 w)))
 (let ((?x1759 (storage_t x_0 x_SSTORE_0 w_2 1 w)))
 (= ?x1759 ?x9564))))
 ))
 (let (($x3052 (forall ((n (_ BitVec 6)) )(let ((?x6142 (stack_t x_0 x_SSTORE_0 w_2 0 n)))
 (let ((?x8345 (stack_t x_0 x_SSTORE_0 w_2 1 n)))
 (let ((?x63 (sc_t 0)))
 (let ((?x11871 (bvadd (_ bv63 6) ?x63)))
 (let (($x3708 (bvsle ?x11871 n)))
 (or $x3708 (= ?x8345 ?x6142))))))))
 ))
 (let (($x10097 (= ?x7154 (bvadd (_ bv1 6) ?x63))))
 (let ((?x11871 (bvadd (_ bv63 6) ?x63)))
 (let ((?x3202 (stack_t x_0 x_SSTORE_0 w_2 0 ?x11871)))
 (let (($x11812 (not (= ((_ extract 6 6) (bvadd (_ bv1 7) (concat (_ bv0 1) (sc_s 4)))) (_ bv0 1)))))
 (let (($x7172 (exc_halt_s 4)))
 (let (($x3428 (not (bvsle (_ bv0 6) (bvadd (_ bv63 6) (sc_s 4))))))
 (let (($x1881 (forall ((w (_ BitVec 256)) )(let ((?x8607 (storage_s x_0 x_SSTORE_0 w_2 4 w)))
 (let ((?x11840 (storage_s x_0 x_SSTORE_0 w_2 5 w)))
 (= ?x11840 ?x8607))))
 ))
 (let (($x1942 (forall ((n (_ BitVec 6)) )(let ((?x4305 (sc_s 4)))
 (let ((?x8905 (bvadd (_ bv63 6) ?x4305)))
 (let (($x11638 (bvsle ?x8905 n)))
 (let ((?x2125 (stack_s x_0 x_SSTORE_0 w_2 4 n)))
 (let ((?x6681 (stack_s x_0 x_SSTORE_0 w_2 5 n)))
 (or (= ?x6681 ?x2125) $x11638)))))))
 ))
 (let (($x7882 (= ?x4319 (bvadd (_ bv1 6) (sc_s 4)))))
 (let (($x7064 (= (used_gas_s x_0 x_SSTORE_0 w_2 5) (+ 3 (used_gas_s x_0 x_SSTORE_0 w_2 4)))))
 (let ((?x4305 (sc_s 4)))
 (let ((?x8905 (bvadd (_ bv63 6) ?x4305)))
 (let ((?x1800 (stack_s x_0 x_SSTORE_0 w_2 4 ?x8905)))
 (let (($x6198 (= $x7172 (or (exc_halt_s 3) (not (bvsle (_ bv0 6) (bvadd (_ bv62 6) (sc_s 3))))))))
 (let (($x368 (forall ((n (_ BitVec 6)) )(let ((?x3130 (stack_s x_0 x_SSTORE_0 w_2 3 n)))
 (let ((?x2125 (stack_s x_0 x_SSTORE_0 w_2 4 n)))
 (let ((?x275 (sc_s 3)))
 (let ((?x10583 (bvadd (_ bv62 6) ?x275)))
 (let (($x2401 (bvsle ?x10583 n)))
 (or $x2401 (= ?x2125 ?x3130))))))))
 ))
 (let ((?x275 (sc_s 3)))
 (let ((?x10583 (bvadd (_ bv62 6) ?x275)))
 (let ((?x10799 (stack_s x_0 x_SSTORE_0 w_2 3 ?x10583)))
 (let (($x165 (= ?x10799 (_ bv0 256))))
 (let ((?x3112 (bvadd (_ bv63 6) ?x275)))
 (let ((?x9561 (stack_s x_0 x_SSTORE_0 w_2 3 ?x3112)))
 (let ((?x2968 (ite (= (storage_s x_0 x_SSTORE_0 w_2 3 ?x9561) (_ bv0 256)) (ite $x165 5000 20000) (ite $x165 (- 10000) 5000))))
 (let ((?x5583 (used_gas_s x_0 x_SSTORE_0 w_2 3)))
 (let ((?x5802 (used_gas_s x_0 x_SSTORE_0 w_2 4)))
 (let (($x5796 (forall ((w (_ BitVec 256)) )(let ((?x2492 (storage_s x_0 x_SSTORE_0 w_2 3 w)))
 (let (($x6213 (= w (stack_s x_0 x_SSTORE_0 w_2 3 (bvadd (_ bv63 6) (sc_s 3))))))
 (let ((?x3698 (ite $x6213 (stack_s x_0 x_SSTORE_0 w_2 3 (bvadd (_ bv62 6) (sc_s 3))) ?x2492)))
 (let ((?x8607 (storage_s x_0 x_SSTORE_0 w_2 4 w)))
 (= ?x8607 ?x3698))))))
 ))
 (let (($x292 (exc_halt_s 3)))
 (let (($x10818 (= $x292 (or (exc_halt_s 2) (not (bvsle (_ bv0 6) (bvadd (_ bv62 6) (sc_s 2))))))))
 (let (($x3191 (forall ((w (_ BitVec 256)) )(let ((?x2096 (storage_s x_0 x_SSTORE_0 w_2 2 w)))
 (let ((?x2492 (storage_s x_0 x_SSTORE_0 w_2 3 w)))
 (= ?x2492 ?x2096))))
 ))
 (let (($x11576 (forall ((n (_ BitVec 6)) )(let ((?x218 (sc_s 2)))
 (let ((?x11936 (bvadd (_ bv62 6) ?x218)))
 (let (($x1347 (bvsle ?x11936 n)))
 (let ((?x4815 (stack_s x_0 x_SSTORE_0 w_2 2 n)))
 (let ((?x3130 (stack_s x_0 x_SSTORE_0 w_2 3 n)))
 (or (= ?x3130 ?x4815) $x1347)))))))
 ))
 (let ((?x218 (sc_s 2)))
 (let (($x530 (= ?x275 ?x218)))
 (let (($x10000 (not (bvsle (_ bv0 6) (bvadd (_ bv62 6) (sc_s 1))))))
 (let (($x8084 (not (= ((_ extract 6 6) (bvadd (_ bv1 7) (concat (_ bv0 1) (sc_s 1)))) (_ bv0 1)))))
 (let (($x189 (exc_halt_s 1)))
 (let (($x247 (exc_halt_s 2)))
 (let (($x6422 (= $x247 (or $x189 $x8084 $x10000))))
 (let (($x9033 (forall ((w (_ BitVec 256)) )(let ((?x9112 (storage_s x_0 x_SSTORE_0 w_2 1 w)))
 (let ((?x2096 (storage_s x_0 x_SSTORE_0 w_2 2 w)))
 (= ?x2096 ?x9112))))
 ))
 (let (($x11770 (forall ((n (_ BitVec 6)) )(let ((?x6585 (stack_s x_0 x_SSTORE_0 w_2 1 n)))
 (let ((?x4815 (stack_s x_0 x_SSTORE_0 w_2 2 n)))
 (let ((?x154 (sc_s 1)))
 (let ((?x9977 (bvadd (_ bv62 6) ?x154)))
 (let (($x3591 (bvsle ?x9977 n)))
 (or $x3591 (= ?x4815 ?x6585))))))))
 ))
 (let (($x7629 (= ?x218 (bvadd (_ bv1 6) (sc_s 1)))))
 (let ((?x5753 (used_gas_s x_0 x_SSTORE_0 w_2 2)))
 (let (($x3250 (= (stack_s x_0 x_SSTORE_0 w_2 2 (bvadd (_ bv63 6) (sc_s 1))) (stack_s x_0 x_SSTORE_0 w_2 1 (bvadd (_ bv63 6) (sc_s 1))))))
 (let ((?x154 (sc_s 1)))
 (let ((?x9977 (bvadd (_ bv62 6) ?x154)))
 (let ((?x5866 (stack_s x_0 x_SSTORE_0 w_2 1 ?x9977)))
 (let (($x1616 (= $x189 (or $x57 (not (= ((_ extract 6 6) (bvadd (_ bv1 7) (concat (_ bv0 1) ?x72))) (_ bv0 1)))))))
 (let (($x9121 (forall ((w (_ BitVec 256)) )(let ((?x4361 (storage_s x_0 x_SSTORE_0 w_2 0 w)))
 (let ((?x9112 (storage_s x_0 x_SSTORE_0 w_2 1 w)))
 (= ?x9112 ?x4361))))
 ))
 (let (($x3286 (forall ((n (_ BitVec 6)) )(let ((?x1394 (stack_s x_0 x_SSTORE_0 w_2 0 n)))
 (let ((?x6585 (stack_s x_0 x_SSTORE_0 w_2 1 n)))
 (let ((?x72 (sc_s 0)))
 (let (($x2753 (bvsle ?x72 n)))
 (or $x2753 (= ?x6585 ?x1394)))))))
 ))
 (let (($x11322 (= ?x154 (bvadd (_ bv1 6) ?x72))))
 (let (($x9933 (forall ((w (_ BitVec 256)) )(let (($x6213 (= w (stack_s x_0 x_SSTORE_0 w_2 3 (bvadd (_ bv63 6) (sc_s 3))))))
 (let ((?x4361 (storage_s x_0 x_SSTORE_0 w_2 0 w)))
 (= ?x4361 (ite $x6213 x_SSTORE_0 (_ bv0 256))))))
 ))
 (let (($x6457 (= ?x7511 0)))
 (let (($x7449 (not $x57)))
 (let (($x6995 (= (stack_s x_0 x_SSTORE_0 w_2 0 (_ bv0 6)) x_0)))
 (let (($x7315 (= ?x72 (_ bv1 6))))
 (and $x7315 $x6995 $x7449 $x6457 $x9933 (= (stack_s x_0 x_SSTORE_0 w_2 1 ?x72) w_2) (= (used_gas_s x_0 x_SSTORE_0 w_2 1) (+ 3 ?x7511)) $x11322 $x3286 $x9121 $x1616 (= (stack_s x_0 x_SSTORE_0 w_2 2 (bvadd (_ bv63 6) ?x218)) ?x5866) (= (stack_s x_0 x_SSTORE_0 w_2 2 ?x9977) ?x5866) $x3250 (= ?x5753 (+ 3 (used_gas_s x_0 x_SSTORE_0 w_2 1))) $x7629 $x11770 $x9033 $x6422 (= ?x9561 (stack_s x_0 x_SSTORE_0 w_2 2 (bvadd (_ bv62 6) ?x218))) (= ?x10799 (stack_s x_0 x_SSTORE_0 w_2 2 (bvadd (_ bv63 6) ?x218))) (= ?x5583 (+ 3 ?x5753)) $x530 $x11576 $x3191 $x10818 $x5796 (= ?x5802 (+ ?x5583 ?x2968)) (= ?x4305 ?x10583) $x368 $x6198 (= (stack_s x_0 x_SSTORE_0 w_2 5 (bvadd (_ bv63 6) ?x4319)) ?x1800) (= (stack_s x_0 x_SSTORE_0 w_2 5 ?x8905) ?x1800) $x7064 $x7882 $x1942 $x1881 (= $x11317 (or $x3428 $x7172 $x11812)) (= ?x11124 ?x3202) (= (stack_t x_0 x_SSTORE_0 w_2 1 ?x11871) ?x3202) (= (used_gas_t x_0 x_SSTORE_0 w_2 1) (+ 3 ?x4566)) $x10097 $x3052 $x5348 $x7505 (= (stack_t x_0 x_SSTORE_0 w_2 2 (bvadd (_ bv63 6) ?x6158)) ?x11124) (= (stack_t x_0 x_SSTORE_0 w_2 2 ?x3400) ?x11124) (= ?x364 (+ 3 (used_gas_t x_0 x_SSTORE_0 w_2 1))) $x3131 $x10042 $x4314 $x4382 (= (stack_t x_0 x_SSTORE_0 w_2 3 ?x6158) w_2) (= ?x8223 (+ 3 ?x364)) $x2667 $x3357 $x3117 $x1977 $x6054 (= (used_gas_t x_0 x_SSTORE_0 w_2 4) ?x4082) (= ?x4818 (bvadd (_ bv62 6) ?x11304)) $x7161 $x3565 $x73 $x3173 $x58 $x10542 $x11247 (not (and $x1733 $x1437 $x6479 $x2512)))))))))))))))))))))))))))))))))))))))))))))))))))))))))))))))))))))))))))))))))))))))))))))))))))))))))))
 )
(check-sat)
(get-proof)
